Academic license - for non-commercial use only
Warning: linear constraint 14624 and linear constraint 14625 have the same name "fc_8"
Gurobi Optimizer version 9.5.0 build v9.5.0rc5 (win64)
Thread count: 4 physical cores, 8 logical processors, using up to 8 threads
Optimize a model with 14634 rows, 44478 columns and 698580 nonzeros
Model fingerprint: 0x55cd032d
Model has 29844 general constraints
Variable types: 29844 continuous, 14634 integer (14634 binary)
Coefficient statistics:
  Matrix range     [8e-06, 1e+00]
  Objective range  [1e+00, 1e+00]
  Bounds range     [1e+00, 1e+00]
  RHS range        [1e-03, 8e+00]
  GenCon coe range [1e+00, 1e+00]
Presolve removed 8627 rows and 32464 columns
Presolve time: 1.24s
Presolved: 6007 rows, 12014 columns, 21089 nonzeros
Presolved model has 6007 SOS constraint(s)
Variable types: 6007 continuous, 6007 integer (6007 binary)

Root relaxation: objective 5.406753e+03, 401 iterations, 0.00 seconds (0.00 work units)

    Nodes    |    Current Node    |     Objective Bounds      |     Work
 Expl Unexpl |  Obj  Depth IntInf | Incumbent    BestBd   Gap | It/Node Time

     0     0 5406.75318    0    5          - 5406.75318      -     -    1s
H    0     0                    5406.7531802 5406.75318  0.00%     -    1s
     0     0 5406.75318    0    5 5406.75318 5406.75318  0.00%     -    1s

Explored 1 nodes (401 simplex iterations) in 1.30 seconds (1.54 work units)
Thread count was 8 (of 8 available processors)

Solution count 1: 5406.75 

Optimal solution found (tolerance 1.00e-04)
Best objective 5.406753180184e+03, best bound 5.406753180185e+03, gap 0.0000%
The two models don't match
pred_nn: 7; pred_milp:7
output_nn: [[ -7.602362    3.4242158   6.452733    9.197155   -7.5689564  -7.9306006
  -22.784739   25.037983   -3.7300112   4.3334093]]
output_milp: [ 0.          3.42421565  6.45273251  9.19715537  0.          0.
  0.         25.03798193  0.          4.33340901]
